Instance name: /mnt/c/Users/ORG/CLionProjects/uMV-FSTSP/Murray_Chu_2015_test_data/FSTSP/FSTSP_10_customer_problems/20140810T123443v8

drone speed: 0.4 miles/minute
uav non-eligible customer: 4 8 
Printing number of nodes: 11

Gurobi Optimizer version 11.0.0 build v11.0.0rc2 (linux64 - "Ubuntu 22.04.3 LTS")

CPU model: 13th Gen Intel(R) Core(TM) i5-13500, instruction set [SSE2|AVX|AVX2]
Thread count: 10 physical cores, 20 logical processors, using up to 20 threads

Optimize a model with 44651 rows, 1957 columns and 1837624 nonzeros
Model fingerprint: 0xf073ebce
Variable types: 11 continuous, 1946 integer (1814 binary)
Coefficient statistics:
  Matrix range     [7e-01, 3e+01]
  Objective range  [1e+00, 3e+01]
  Bounds range     [1e+00, 1e+00]
  RHS range        [1e+00, 9e+00]
Found heuristic solution: objective 189.1021981
Presolve removed 39169 rows and 1143 columns
Presolve time: 2.83s
Presolved: 5482 rows, 814 columns, 136436 nonzeros
Variable types: 8 continuous, 806 integer (806 binary)
Found heuristic solution: objective 179.0814782

Root relaxation: objective 7.603765e+01, 2341 iterations, 0.23 seconds (0.49 work units)

    Nodes    |    Current Node    |     Objective Bounds      |     Work
 Expl Unexpl |  Obj  Depth IntInf | Incumbent    BestBd   Gap | It/Node Time

     0     0   76.03765    0  121  179.08148   76.03765  57.5%     -    3s
H    0     0                     156.9219529   76.03765  51.5%     -    3s
H    0     0                     107.3790864   76.03765  29.2%     -    3s
H    0     0                     103.5491507   76.03765  26.6%     -    3s
H    0     0                      94.0227875   76.03765  19.1%     -    3s
     0     0   77.03312    0  166   94.02279   77.03312  18.1%     -    3s
H    0     0                      93.4328302   77.14144  17.4%     -    3s
H    0     0                      93.2029763   77.14144  17.2%     -    3s
     0     0   77.14144    0  166   93.20298   77.14144  17.2%     -    3s
H    0     0                      89.6923465   79.58868  11.3%     -    3s
     0     0   79.58868    0  152   89.69235   79.58868  11.3%     -    3s
     0     0   79.76595    0  178   89.69235   79.76595  11.1%     -    3s
     0     0   79.76595    0  180   89.69235   79.76595  11.1%     -    3s
H    0     0                      88.0528741   79.76595  9.41%     -    3s
     0     0   80.16759    0  163   88.05287   80.16759  8.96%     -    4s
     0     0   80.22711    0  141   88.05287   80.22711  8.89%     -    4s
     0     0   80.25243    0  149   88.05287   80.25243  8.86%     -    4s
     0     0   80.26722    0  152   88.05287   80.26722  8.84%     -    4s
     0     0   80.51781    0  157   88.05287   80.51781  8.56%     -    4s
     0     0   80.57299    0  175   88.05287   80.57299  8.49%     -    4s
     0     0   80.57299    0  171   88.05287   80.57299  8.49%     -    4s
     0     0   80.57299    0  166   88.05287   80.57299  8.49%     -    4s
     0     0   80.60135    0  166   88.05287   80.60135  8.46%     -    4s
H    0     0                      87.9579526   80.65384  8.30%     -    4s
     0     0   80.65384    0  167   87.95795   80.65384  8.30%     -    4s
     0     0   80.65384    0  171   87.95795   80.65384  8.30%     -    4s
     0     0   80.65679    0  162   87.95795   80.65679  8.30%     -    4s
     0     0   80.67256    0  159   87.95795   80.67256  8.28%     -    4s
     0     0   80.67256    0  162   87.95795   80.67256  8.28%     -    4s
     0     0   80.67256    0  165   87.95795   80.67256  8.28%     -    4s
     0     0   80.67256    0  161   87.95795   80.67256  8.28%     -    4s
     0     0   80.73001    0  170   87.95795   80.73001  8.22%     -    4s
H    0     0                      84.8136601   80.77123  4.77%     -    5s
     0     0   80.77123    0  175   84.81366   80.77123  4.77%     -    5s
     0     0   80.77123    0  169   84.81366   80.77123  4.77%     -    5s
     0     0   80.77123    0  175   84.81366   80.77123  4.77%     -    5s
     0     0   80.77123    0  180   84.81366   80.77123  4.77%     -    5s
     0     0   80.80112    0  174   84.81366   80.80112  4.73%     -    5s
     0     0   80.80112    0  176   84.81366   80.80112  4.73%     -    5s
     0     0   80.81657    0  175   84.81366   80.81657  4.71%     -    5s
     0     0   80.83035    0  172   84.81366   80.83035  4.70%     -    5s
     0     0   80.83035    0  164   84.81366   80.83035  4.70%     -    5s
     0     0   80.85322    0  168   84.81366   80.85322  4.67%     -    5s
     0     0   80.85322    0  168   84.81366   80.85322  4.67%     -    5s
     0     0   80.86730    0  168   84.81366   80.86730  4.65%     -    5s
     0     0   80.88052    0  164   84.81366   80.88052  4.64%     -    5s
     0     0   80.89940    0  121   84.81366   80.89940  4.62%     -    6s
     0     0   80.89940    0  154   84.81366   80.89940  4.62%     -    6s
     0     0   80.99345    0  152   84.81366   80.99345  4.50%     -    6s
     0     0   81.02337    0  167   84.81366   81.02337  4.47%     -    6s
     0     0   81.02492    0  156   84.81366   81.02492  4.47%     -    6s
     0     0   81.09457    0  135   84.81366   81.09457  4.39%     -    6s
     0     0   81.10615    0  124   84.81366   81.10615  4.37%     -    6s
     0     0   81.10649    0  151   84.81366   81.10649  4.37%     -    7s
     0     0   81.19797    0  177   84.81366   81.19797  4.26%     -    7s
     0     0   81.22607    0  178   84.81366   81.22607  4.23%     -    7s
     0     0   81.24502    0  167   84.81366   81.24502  4.21%     -    7s
     0     0   81.24997    0  153   84.81366   81.24997  4.20%     -    7s
     0     0   81.24997    0  158   84.81366   81.24997  4.20%     -    7s
     0     0   81.24997    0  156   84.81366   81.24997  4.20%     -    7s
     0     0   81.26105    0  154   84.81366   81.26105  4.19%     -    7s
     0     0   81.26771    0  162   84.81366   81.26771  4.18%     -    7s
     0     0   81.26771    0  162   84.81366   81.26771  4.18%     -    7s
     0     0   81.28068    0  151   84.81366   81.28068  4.17%     -    7s
     0     0   81.28504    0  151   84.81366   81.28504  4.16%     -    7s
     0     0   81.28504    0  155   84.81366   81.28504  4.16%     -    7s
     0     0   81.28504    0  164   84.81366   81.28504  4.16%     -    7s
     0     0   81.28504    0  153   84.81366   81.28504  4.16%     -    7s
     0     0   81.28504    0  165   84.81366   81.28504  4.16%     -    7s
     0     0   81.28504    0  158   84.81366   81.28504  4.16%     -    7s
     0     0   81.29490    0  159   84.81366   81.29490  4.15%     -    7s
     0     0   81.29490    0  157   84.81366   81.29490  4.15%     -    7s
     0     0   81.29490    0  171   84.81366   81.29490  4.15%     -    7s
     0     0   81.29532    0  173   84.81366   81.29532  4.15%     -    7s
     0     0   81.31111    0  173   84.81366   81.31111  4.13%     -    7s
     0     2   81.31177    0  173   84.81366   81.31177  4.13%     -    7s

Cutting planes:
  Gomory: 9
  Cover: 6
  Implied bound: 1
  Clique: 4
  MIR: 12
  StrongCG: 3
  GUB cover: 1
  Zero half: 20
  RLT: 51

Explored 98 nodes (16543 simplex iterations) in 8.62 seconds (14.74 work units)
Thread count was 20 (of 20 available processors)

Solution count 10: 84.8137 87.958 88.0529 ... 156.922

Optimal solution found (tolerance 1.00e-04)
Best objective 8.481366008711e+01, best bound 8.481366008711e+01, gap 0.0000%
Truck arcs: 
0 2 17.555
1 8 3.32128
2 5 8.42508
4 10 10.5327
5 6 0.968346
6 1 1.9199
7 4 7.34864
8 7 5.29976
9 11 19.5667
10 9 6.76206
Theta:
Theta_3 = 1
Drone arcs:
3 9
4 3
Gamma:
gamma_3_4_10= 1
gamma_3_10_9= 1
Sigma:
Sigma_1 = 0
Sigma_2 = 0
Sigma_3 = 1.11415
Sigma_4 = 0
Sigma_5 = 0
Sigma_6 = 0
Sigma_7 = 0
Sigma_8 = 0
Sigma_9 = 0
Sigma_10 = 0
Sigma_11 = 0
middle of 3 sortie are: 10 
Objective: 84.8137
Number of sorties: 1
